(set-info :smt-lib-version 2.6)
(set-logic QF_NIA)
(set-info :source |
Generated by: Cristina Borralleras, Daniel Larraz, Albert Oliveras, Enric Rodriguez-Carbonell, Albert Rubio
Generated on: 2017-04-27
Generator: VeryMax
Application: Termination proving
Target solver: barcelogic
|)
(set-info :license "https://creativecommons.org/licenses/by/4.0/")
(set-info :category "industrial")
(set-info :status unknown)
(declare-fun Nl2main_x1 () Int)
(declare-fun Nl2main_oldx1 () Int)
(declare-fun lam0n0 () Int)
(declare-fun lam0n1 () Int)
(declare-fun lam0n2 () Int)
(declare-fun lam0n3 () Int)
(declare-fun lam0n4 () Int)
(declare-fun lam0n5 () Int)
(declare-fun lam0n6 () Int)
(declare-fun UndefCntr0_CT () Int)
(declare-fun Nl2CT1 () Int)
(declare-fun UndefCntr0_main_x () Int)
(declare-fun UndefCntr0_main_oldx () Int)
(declare-fun UndefCntr0_undef4 () Int)
(declare-fun lam1n0 () Int)
(declare-fun lam1n1 () Int)
(declare-fun lam1n2 () Int)
(declare-fun lam1n3 () Int)
(declare-fun lam1n4 () Int)
(declare-fun lam1n5 () Int)
(declare-fun lam1n6 () Int)
(declare-fun lam2n0 () Int)
(declare-fun lam2n1 () Int)
(declare-fun lam2n2 () Int)
(declare-fun lam2n3 () Int)
(declare-fun lam2n4 () Int)
(declare-fun lam2n5 () Int)
(declare-fun lam2n6 () Int)
(declare-fun lam2n7 () Int)
(declare-fun UndefCntr1_CT () Int)
(declare-fun UndefCntr1_main_x () Int)
(declare-fun UndefCntr1_main_oldx () Int)
(declare-fun UndefCntr1_undef4 () Int)
(declare-fun lam3n0 () Int)
(declare-fun lam3n1 () Int)
(declare-fun lam3n2 () Int)
(declare-fun lam3n3 () Int)
(declare-fun lam3n4 () Int)
(declare-fun lam3n5 () Int)
(declare-fun lam3n6 () Int)
(declare-fun lam3n7 () Int)
(declare-fun lam4n0 () Int)
(declare-fun main_x () Int)
(declare-fun undef3 () Int)
(declare-fun main_oldx () Int)
(declare-fun FV_main_x_2 () Int)
(declare-fun FV_main_oldx_2 () Int)
(declare-fun lam5n0 () Int)
(declare-fun lam5n1 () Int)
(declare-fun lam5n2 () Int)
(declare-fun lam5n3 () Int)
(declare-fun lam5n4 () Int)
(declare-fun lam6n0 () Int)
(declare-fun lam6n1 () Int)
(declare-fun lam6n2 () Int)
(declare-fun lam6n3 () Int)
(declare-fun lam6n4 () Int)
(declare-fun UndefDef0undef4_CT () Int)
(declare-fun UndefDef0undef4_main_x () Int)
(declare-fun UndefDef0undef4_main_oldx () Int)
(declare-fun lam7n0 () Int)
(declare-fun lam7n1 () Int)
(declare-fun lam7n2 () Int)
(declare-fun lam7n3 () Int)
(declare-fun lam7n4 () Int)
(declare-fun lam8n0 () Int)
(declare-fun lam8n1 () Int)
(declare-fun lam8n2 () Int)
(declare-fun lam8n3 () Int)
(declare-fun lam8n4 () Int)
(declare-fun lam8n5 () Int)
(declare-fun lam9n0 () Int)
(declare-fun lam9n1 () Int)
(declare-fun lam9n2 () Int)
(declare-fun lam9n3 () Int)
(declare-fun lam9n4 () Int)
(declare-fun lam9n5 () Int)
(declare-fun UndefDef1undef4_CT () Int)
(declare-fun UndefDef1undef4_main_x () Int)
(declare-fun UndefDef1undef4_main_oldx () Int)
(declare-fun lam10n0 () Int)
(declare-fun lam10n1 () Int)
(declare-fun lam10n2 () Int)
(declare-fun lam10n3 () Int)
(declare-fun lam10n4 () Int)
(declare-fun lam10n5 () Int)
(declare-fun lam11n0 () Int)
(declare-fun lam11n1 () Int)
(declare-fun lam11n2 () Int)
(declare-fun lam11n3 () Int)
(declare-fun lam11n4 () Int)
(declare-fun FV_main_x_3 () Int)
(declare-fun FV_main_oldx_3 () Int)
(declare-fun FV_undef4_3 () Int)
(assert ( and ( <= ( - 1 ) Nl2main_x1 ) ( <= Nl2main_x1 1 ) ( <= ( - 1 ) Nl2main_oldx1 ) ( <= Nl2main_oldx1 1 ) ))
(assert ( or ( and ( >= lam0n0 0 ) ( >= lam0n1 0 ) ( >= lam0n2 0 ) ( >= lam0n3 0 ) ( >= lam0n4 0 ) ( >= lam0n5 0 ) ( >= lam0n6 0 ) ( > ( + ( * 2 lam0n1 ) ( * 2 lam0n2 ) ( * ( - 3 ) lam0n3 ) ( * 12 lam0n4 ) ( * UndefCntr0_CT lam0n5 ) ( * Nl2CT1 lam0n6 ) ( - 1 ) ) 0 ) ( = ( + ( * ( - 1 ) lam0n0 ) ( * ( - 1 ) lam0n1 ) ( * 2 lam0n3 ) ( * ( - 1 ) lam0n4 ) ( * UndefCntr0_main_x lam0n5 ) ( * Nl2main_x1 lam0n6 ) ) 0 ) ( = ( + ( * 2 lam0n0 ) ( * ( - 1 ) lam0n2 ) ( * 2 lam0n3 ) ( * 1 lam0n4 ) ( * UndefCntr0_main_oldx lam0n5 ) ( * Nl2main_oldx1 lam0n6 ) ) 0 ) ( = ( + ( * ( - 1 ) lam0n3 ) ( * UndefCntr0_undef4 lam0n5 ) ) 0 ) ) ( and ( >= lam1n0 0 ) ( >= lam1n1 0 ) ( >= lam1n2 0 ) ( >= lam1n3 0 ) ( >= lam1n4 0 ) ( >= lam1n5 0 ) ( >= lam1n6 0 ) ( > ( + ( * 2 lam1n1 ) ( * 2 lam1n2 ) ( * ( - 3 ) lam1n3 ) ( * 12 lam1n4 ) ( * UndefCntr0_CT lam1n5 ) ( * Nl2CT1 lam1n6 ) ( - 1 ( + ( + Nl2CT1 ( * Nl2main_x1 0 ) ) ( * Nl2main_oldx1 0 ) ) ) ) 0 ) ( = ( + ( * ( - 1 ) lam1n0 ) ( * ( - 1 ) lam1n1 ) ( * 2 lam1n3 ) ( * ( - 1 ) lam1n4 ) ( * UndefCntr0_main_x lam1n5 ) ( * Nl2main_x1 lam1n6 ) ( - ( + 0 ( * Nl2main_oldx1 1 ) ) ) ) 0 ) ( = ( + ( * 2 lam1n0 ) ( * ( - 1 ) lam1n2 ) ( * 2 lam1n3 ) ( * 1 lam1n4 ) ( * UndefCntr0_main_oldx lam1n5 ) ( * Nl2main_oldx1 lam1n6 ) ) 0 ) ( = ( + ( * ( - 1 ) lam1n3 ) ( * UndefCntr0_undef4 lam1n5 ) ( - ( + 0 ( * Nl2main_x1 1 ) ) ) ) 0 ) ) ))
(assert ( or ( and ( >= lam2n0 0 ) ( >= lam2n1 0 ) ( >= lam2n2 0 ) ( >= lam2n3 0 ) ( >= lam2n4 0 ) ( >= lam2n5 0 ) ( >= lam2n6 0 ) ( >= lam2n7 0 ) ( > ( + ( * 2 lam2n1 ) ( * ( - 1 ) lam2n2 ) ( * ( - 4 ) lam2n3 ) ( * ( - 5 ) lam2n4 ) ( * 12 lam2n5 ) ( * UndefCntr1_CT lam2n6 ) ( * Nl2CT1 lam2n7 ) ( - 1 ) ) 0 ) ( = ( + ( * ( - 1 ) lam2n0 ) ( * ( - 1 ) lam2n1 ) ( * 5 lam2n3 ) ( * ( - 1 ) lam2n5 ) ( * UndefCntr1_main_x lam2n6 ) ( * Nl2main_x1 lam2n7 ) ) 0 ) ( = ( + ( * 2 lam2n0 ) ( * 1 lam2n2 ) ( * ( - 8 ) lam2n3 ) ( * ( - 1 ) lam2n4 ) ( * 1 lam2n5 ) ( * UndefCntr1_main_oldx lam2n6 ) ( * Nl2main_oldx1 lam2n7 ) ) 0 ) ( = ( + ( * ( - 2 ) lam2n3 ) ( * UndefCntr1_undef4 lam2n6 ) ) 0 ) ) ( and ( >= lam3n0 0 ) ( >= lam3n1 0 ) ( >= lam3n2 0 ) ( >= lam3n3 0 ) ( >= lam3n4 0 ) ( >= lam3n5 0 ) ( >= lam3n6 0 ) ( >= lam3n7 0 ) ( > ( + ( * 2 lam3n1 ) ( * ( - 1 ) lam3n2 ) ( * ( - 4 ) lam3n3 ) ( * ( - 5 ) lam3n4 ) ( * 12 lam3n5 ) ( * UndefCntr1_CT lam3n6 ) ( * Nl2CT1 lam3n7 ) ( - 1 ( + ( + Nl2CT1 ( * Nl2main_x1 0 ) ) ( * Nl2main_oldx1 0 ) ) ) ) 0 ) ( = ( + ( * ( - 1 ) lam3n0 ) ( * ( - 1 ) lam3n1 ) ( * 5 lam3n3 ) ( * ( - 1 ) lam3n5 ) ( * UndefCntr1_main_x lam3n6 ) ( * Nl2main_x1 lam3n7 ) ( - ( + 0 ( * Nl2main_oldx1 1 ) ) ) ) 0 ) ( = ( + ( * 2 lam3n0 ) ( * 1 lam3n2 ) ( * ( - 8 ) lam3n3 ) ( * ( - 1 ) lam3n4 ) ( * 1 lam3n5 ) ( * UndefCntr1_main_oldx lam3n6 ) ( * Nl2main_oldx1 lam3n7 ) ) 0 ) ( = ( + ( * ( - 2 ) lam3n3 ) ( * UndefCntr1_undef4 lam3n6 ) ( - ( + 0 ( * Nl2main_x1 1 ) ) ) ) 0 ) ) ))
(assert ( and ( <= ( + Nl2CT1 ( * Nl2main_x1 FV_main_x_2 ) ( * Nl2main_oldx1 FV_main_oldx_2 ) ) 0 ) ( <= ( + 12 ( * ( - 1 ) FV_main_x_2 ) FV_main_oldx_2 ) 0 ) ( <= ( + ( - 5 ) ( * ( - 1 ) FV_main_oldx_2 ) ) 0 ) ))
(assert ( or ( not ( = UndefCntr0_main_x 0 ) ) ( not ( = UndefCntr0_main_oldx 0 ) ) ( not ( = UndefCntr0_undef4 0 ) ) ( = UndefCntr0_CT 0 ) ))
(assert ( or ( and ( = UndefCntr0_main_x 0 ) ( = UndefCntr0_main_oldx 0 ) ) ( not ( = UndefCntr0_undef4 0 ) ) ))
(assert ( or ( not ( = UndefCntr1_main_x 0 ) ) ( not ( = UndefCntr1_main_oldx 0 ) ) ( not ( = UndefCntr1_undef4 0 ) ) ( = UndefCntr1_CT 0 ) ))
(assert ( or ( and ( = UndefCntr1_main_x 0 ) ( = UndefCntr1_main_oldx 0 ) ) ( not ( = UndefCntr1_undef4 0 ) ) ))
(assert ( or ( and ( >= lam5n0 0 ) ( >= lam5n1 0 ) ( >= lam5n2 0 ) ( >= lam5n3 0 ) ( >= lam5n4 0 ) ( > ( + ( * 2 lam5n1 ) ( * 2 lam5n2 ) ( * 12 lam5n3 ) ( * Nl2CT1 lam5n4 ) ( - 1 ) ) 0 ) ( = ( + ( * ( - 1 ) lam5n0 ) ( * ( - 1 ) lam5n1 ) ( * ( - 1 ) lam5n3 ) ( * Nl2main_x1 lam5n4 ) ) 0 ) ( = ( + ( * 2 lam5n0 ) ( * ( - 1 ) lam5n2 ) ( * 1 lam5n3 ) ( * Nl2main_oldx1 lam5n4 ) ) 0 ) ) ( and ( and ( >= lam6n0 0 ) ( >= lam6n1 0 ) ( >= lam6n2 0 ) ( >= lam6n3 0 ) ( >= lam6n4 0 ) ( > ( + ( * 2 lam6n1 ) ( * 2 lam6n2 ) ( * 12 lam6n3 ) ( * Nl2CT1 lam6n4 ) ( - 1 ( + ( + ( + ( - 3 ) 0 ) 0 ) ( * ( - 1 ) UndefDef0undef4_CT ) ) ) ) 0 ) ( = ( + ( * ( - 1 ) lam6n0 ) ( * ( - 1 ) lam6n1 ) ( * ( - 1 ) lam6n3 ) ( * Nl2main_x1 lam6n4 ) ( - ( + 2 ( * UndefDef0undef4_main_x ( - 1 ) ) ) ) ) 0 ) ( = ( + ( * 2 lam6n0 ) ( * ( - 1 ) lam6n2 ) ( * 1 lam6n3 ) ( * Nl2main_oldx1 lam6n4 ) ( - ( + 2 ( * UndefDef0undef4_main_oldx ( - 1 ) ) ) ) ) 0 ) ) ( or ( = UndefCntr0_undef4 0 ) ( and ( >= lam7n0 0 ) ( >= lam7n1 0 ) ( >= lam7n2 0 ) ( >= lam7n3 0 ) ( >= lam7n4 0 ) ( > ( + ( * 2 lam7n1 ) ( * 2 lam7n2 ) ( * 12 lam7n3 ) ( * Nl2CT1 lam7n4 ) ( - 1 ( + ( + ( + UndefCntr0_CT 0 ) 0 ) ( * UndefCntr0_undef4 UndefDef0undef4_CT ) ) ) ) 0 ) ( = ( + ( * ( - 1 ) lam7n0 ) ( * ( - 1 ) lam7n1 ) ( * ( - 1 ) lam7n3 ) ( * Nl2main_x1 lam7n4 ) ( - ( + UndefCntr0_main_x ( * UndefDef0undef4_main_x UndefCntr0_undef4 ) ) ) ) 0 ) ( = ( + ( * 2 lam7n0 ) ( * ( - 1 ) lam7n2 ) ( * 1 lam7n3 ) ( * Nl2main_oldx1 lam7n4 ) ( - ( + UndefCntr0_main_oldx ( * UndefDef0undef4_main_oldx UndefCntr0_undef4 ) ) ) ) 0 ) ) ) ) ))
(assert ( or ( and ( >= lam8n0 0 ) ( >= lam8n1 0 ) ( >= lam8n2 0 ) ( >= lam8n3 0 ) ( >= lam8n4 0 ) ( >= lam8n5 0 ) ( > ( + ( * 2 lam8n1 ) ( * ( - 1 ) lam8n2 ) ( * ( - 5 ) lam8n3 ) ( * 12 lam8n4 ) ( * Nl2CT1 lam8n5 ) ( - 1 ) ) 0 ) ( = ( + ( * ( - 1 ) lam8n0 ) ( * ( - 1 ) lam8n1 ) ( * ( - 1 ) lam8n4 ) ( * Nl2main_x1 lam8n5 ) ) 0 ) ( = ( + ( * 2 lam8n0 ) ( * 1 lam8n2 ) ( * ( - 1 ) lam8n3 ) ( * 1 lam8n4 ) ( * Nl2main_oldx1 lam8n5 ) ) 0 ) ) ( and ( and ( >= lam9n0 0 ) ( >= lam9n1 0 ) ( >= lam9n2 0 ) ( >= lam9n3 0 ) ( >= lam9n4 0 ) ( >= lam9n5 0 ) ( > ( + ( * 2 lam9n1 ) ( * ( - 1 ) lam9n2 ) ( * ( - 5 ) lam9n3 ) ( * 12 lam9n4 ) ( * Nl2CT1 lam9n5 ) ( - 1 ( + ( + ( + ( - 4 ) 0 ) 0 ) ( * ( - 2 ) UndefDef1undef4_CT ) ) ) ) 0 ) ( = ( + ( * ( - 1 ) lam9n0 ) ( * ( - 1 ) lam9n1 ) ( * ( - 1 ) lam9n4 ) ( * Nl2main_x1 lam9n5 ) ( - ( + 5 ( * UndefDef1undef4_main_x ( - 2 ) ) ) ) ) 0 ) ( = ( + ( * 2 lam9n0 ) ( * 1 lam9n2 ) ( * ( - 1 ) lam9n3 ) ( * 1 lam9n4 ) ( * Nl2main_oldx1 lam9n5 ) ( - ( + ( - 8 ) ( * UndefDef1undef4_main_oldx ( - 2 ) ) ) ) ) 0 ) ) ( or ( = UndefCntr1_undef4 0 ) ( and ( >= lam10n0 0 ) ( >= lam10n1 0 ) ( >= lam10n2 0 ) ( >= lam10n3 0 ) ( >= lam10n4 0 ) ( >= lam10n5 0 ) ( > ( + ( * 2 lam10n1 ) ( * ( - 1 ) lam10n2 ) ( * ( - 5 ) lam10n3 ) ( * 12 lam10n4 ) ( * Nl2CT1 lam10n5 ) ( - 1 ( + ( + ( + UndefCntr1_CT 0 ) 0 ) ( * UndefCntr1_undef4 UndefDef1undef4_CT ) ) ) ) 0 ) ( = ( + ( * ( - 1 ) lam10n0 ) ( * ( - 1 ) lam10n1 ) ( * ( - 1 ) lam10n4 ) ( * Nl2main_x1 lam10n5 ) ( - ( + UndefCntr1_main_x ( * UndefDef1undef4_main_x UndefCntr1_undef4 ) ) ) ) 0 ) ( = ( + ( * 2 lam10n0 ) ( * 1 lam10n2 ) ( * ( - 1 ) lam10n3 ) ( * 1 lam10n4 ) ( * Nl2main_oldx1 lam10n5 ) ( - ( + UndefCntr1_main_oldx ( * UndefDef1undef4_main_oldx UndefCntr1_undef4 ) ) ) ) 0 ) ) ) ) ))
(assert ( and ( >= lam11n0 0 ) ( >= lam11n1 0 ) ( >= lam11n2 0 ) ( >= lam11n3 0 ) ( >= lam11n4 0 ) ( > ( + ( * 1 lam11n0 ) ( * 2 lam11n1 ) ( * 5 lam11n2 ) ( * 12 lam11n3 ) ( * Nl2CT1 lam11n4 ) ( - 1 ) ) 0 ) ( = ( + ( * 1 lam11n0 ) ( * ( - 1 ) lam11n1 ) ( * ( - 1 ) lam11n3 ) ( * Nl2main_x1 lam11n4 ) ) 0 ) ( = ( + ( * ( - 2 ) lam11n0 ) ( * ( - 1 ) lam11n2 ) ( * 1 lam11n3 ) ( * Nl2main_oldx1 lam11n4 ) ) 0 ) ))
(assert ( and ( <= ( + Nl2CT1 ( * Nl2main_x1 FV_main_x_3 ) ( * Nl2main_oldx1 FV_main_oldx_3 ) ) 0 ) ( or ( and ( <= ( + ( * ( - 1 ) FV_main_x_3 ) ( * 2 FV_main_oldx_3 ) ) 0 ) ( <= ( + 2 ( * ( - 1 ) FV_main_x_3 ) ) 0 ) ( <= ( + 2 ( * ( - 1 ) FV_main_oldx_3 ) ) 0 ) ( <= ( + ( - 3 ) ( * 2 FV_main_x_3 ) ( * 2 FV_main_oldx_3 ) ( * ( - 1 ) FV_undef4_3 ) ) 0 ) ( <= ( + 12 ( * ( - 1 ) FV_main_x_3 ) FV_main_oldx_3 ) 0 ) ) ( and ( <= ( + ( * ( - 1 ) FV_main_x_3 ) ( * 2 FV_main_oldx_3 ) ) 0 ) ( <= ( + 2 ( * ( - 1 ) FV_main_x_3 ) ) 0 ) ( <= ( + ( - 1 ) FV_main_oldx_3 ) 0 ) ( <= ( + ( - 4 ) ( * 5 FV_main_x_3 ) ( * ( - 8 ) FV_main_oldx_3 ) ( * ( - 2 ) FV_undef4_3 ) ) 0 ) ( <= ( + ( - 5 ) ( * ( - 1 ) FV_main_oldx_3 ) ) 0 ) ( <= ( + 12 ( * ( - 1 ) FV_main_x_3 ) FV_main_oldx_3 ) 0 ) ) ) ))
(check-sat)
(exit)
